
Gurobi 12.0.0 (mac64[arm]) logging started Tue Dec  9 22:27:27 2025

Set parameter LogFile to value "/Users/lennardhansmann/Desktop/Newspaperlayout/newspaperlayout/Instances/Diss/Large/L30P180(A)/sol/L30P180A12(A).log"
Set parameter Threads to value 1
Gurobi Optimizer version 12.0.0 build v12.0.0rc1 (mac64[arm] - Darwin 24.6.0 24G90)

CPU model: Apple M3 Pro
Thread count: 11 physical cores, 11 logical processors, using up to 1 threads

Non-default parameters:
TimeLimit  3600
Threads  1

Optimize a model with 31668 rows, 85173 columns and 1083040 nonzeros
Model fingerprint: 0x087b3a5a
Variable types: 8156 continuous, 77017 integer (77017 binary)
Coefficient statistics:
  Matrix range     [4e-04, 1e+04]
  Objective range  [1e+00, 1e+00]
  Bounds range     [1e+00, 1e+04]
  RHS range        [9e-01, 1e+04]
Found heuristic solution: objective -21.8216345
Presolve removed 2987 rows and 21608 columns (presolve time = 5s)...
Presolve removed 3233 rows and 35292 columns
Presolve time: 8.75s
Presolved: 28435 rows, 49881 columns, 600903 nonzeros
Variable types: 3274 continuous, 46607 integer (43464 binary)

Root simplex log...

Iteration    Objective       Primal Inf.    Dual Inf.      Time
       0    1.5034117e+02   1.895260e+02   0.000000e+00      9s
   23952    1.4949919e+01   2.233312e+05   0.000000e+00     10s
   41894    1.4307410e+01   0.000000e+00   0.000000e+00     14s
   41894    1.4307410e+01   0.000000e+00   0.000000e+00     14s

Root relaxation: objective 1.430741e+01, 41894 iterations, 4.92 seconds (11.21 work units)

    Nodes    |    Current Node    |     Objective Bounds      |     Work
 Expl Unexpl |  Obj  Depth IntInf | Incumbent    BestBd   Gap | It/Node Time

     0     0   14.30741    0  957  -21.82163   14.30741   166%     -   14s
     0     0   14.28804    0  976  -21.82163   14.28804   165%     -   14s
     0     0   14.27244    0 1035  -21.82163   14.27244   165%     -   15s
     0     0   14.26275    0  970  -21.82163   14.26275   165%     -   16s
     0     0   14.25234    0  952  -21.82163   14.25234   165%     -   16s
     0     0   14.24713    0 1015  -21.82163   14.24713   165%     -   17s
     0     0   14.24494    0 1023  -21.82163   14.24494   165%     -   17s
     0     0   14.24227    0 1002  -21.82163   14.24227   165%     -   17s
     0     0   14.24195    0 1047  -21.82163   14.24195   165%     -   17s
     0     0   14.24188    0 1028  -21.82163   14.24188   165%     -   17s
     0     0   14.24120    0  985  -21.82163   14.24120   165%     -   18s
H    0     0                       1.3722546   14.24120   938%     -   18s
H    0     0                       1.6092428   14.24120   785%     -   18s
H    0     0                       3.2651045   14.24120   336%     -   18s
H    0     0                       3.5877063   14.24120   297%     -   18s
H    0     0                       3.8322989   14.24120   272%     -   18s
H    0     0                       4.2085710   14.24120   238%     -   18s
H    0     0                       4.2155557   14.24120   238%     -   18s
H    0     0                       4.3858749   14.24120   225%     -   18s
     0     0   14.03349    0 1048    4.38587   14.03349   220%     -   20s
     0     0   14.02166    0 1113    4.38587   14.02166   220%     -   21s
     0     0   14.01980    0 1078    4.38587   14.01980   220%     -   21s
     0     0   14.01917    0 1076    4.38587   14.01917   220%     -   21s
     0     0   14.01917    0 1052    4.38587   14.01917   220%     -   21s
H    0     0                       4.4411549   14.01906   216%     -   22s
H    0     0                       4.5131730   14.01906   211%     -   22s
     0     0   14.00407    0 1053    4.51317   14.00407   210%     -   22s
     0     0   14.00361    0 1080    4.51317   14.00361   210%     -   22s
     0     0   13.77326    0 1209    4.51317   13.77326   205%     -   26s
     0     0   13.76939    0 1132    4.51317   13.76939   205%     -   26s
     0     0   13.76704    0 1138    4.51317   13.76704   205%     -   26s
     0     0   13.76626    0 1123    4.51317   13.76626   205%     -   27s
     0     0   13.76626    0 1136    4.51317   13.76626   205%     -   27s
H    0     0                       4.6392034   13.76626   197%     -   27s
H    0     0                       4.6831058   13.76626   194%     -   27s
H    0     0                       5.2213596   13.76626   164%     -   27s
H    0     0                       5.6378047   13.76626   144%     -   27s
H    0     0                       5.7377243   13.76626   140%     -   27s
H    0     0                       6.0519062   13.76626   127%     -   27s
H    0     0                       6.0917589   13.76626   126%     -   27s
H    0     0                       6.1240944   13.76626   125%     -   27s
H    0     0                       6.1275799   13.76626   125%     -   27s
     0     0   13.75149    0 1277    6.12758   13.75149   124%     -   28s
     0     0   13.74963    0 1185    6.12758   13.74963   124%     -   28s
     0     0   13.74963    0 1141    6.12758   13.74963   124%     -   28s
     0     0   13.23736    0 1338    6.12758   13.23736   116%     -   37s
     0     0   13.22834    0 1384    6.12758   13.22834   116%     -   38s
     0     0   13.21786    0 1494    6.12758   13.21786   116%     -   39s
H    0     0                       6.2058807   13.21786   113%     -   40s
H    0     0                       6.3077091   13.21786   110%     -   40s
H    0     0                       6.6545679   13.21786  98.6%     -   40s
     0     0   13.19441    0 1508    6.65457   13.19441  98.3%     -   41s
     0     0   13.19441    0  971    6.65457   13.19441  98.3%     -   49s
     0     0   13.19441    0  969    6.65457   13.19441  98.3%     -   49s
H    0     0                       7.0427144   13.19441  87.3%     -   49s
H    0     0                       7.1677144   13.19441  84.1%     -   49s
H    0     0                       7.2446122   13.19441  82.1%     -   49s
     0     0   13.19441    0 1027    7.24461   13.19441  82.1%     -   52s
     0     0   13.19441    0 1025    7.24461   13.19441  82.1%     -   53s
     0     0   13.19441    0 1025    7.24461   13.19441  82.1%     -   53s
     0     0   13.19441    0 1019    7.24461   13.19441  82.1%     -   53s
     0     0   13.19441    0 1440    7.24461   13.19441  82.1%     -   59s
     0     0   13.19441    0 1444    7.24461   13.19441  82.1%     -   60s
     0     0   13.19441    0 1416    7.24461   13.19441  82.1%     -   60s
     0     0   13.03803    0 1517    7.24461   13.03803  80.0%     -   68s
     0     0   13.03062    0 1486    7.24461   13.03062  79.9%     -   70s
     0     0   13.02889    0 1498    7.24461   13.02889  79.8%     -   71s
     0     0   13.02889    0 1460    7.24461   13.02889  79.8%     -   71s
H    0     0                       7.3825877   13.02889  76.5%     -   71s
H    0     0                       7.8465554   13.02889  66.0%     -   71s
H    0     0                       8.0287823   13.02889  62.3%     -   71s
H    0     0                       8.3386993   13.02889  56.2%     -   71s
H    0     0                       8.4037823   13.02889  55.0%     -   71s
H    0     0                       8.4947635   13.02889  53.4%     -   72s
H    0     0                       8.5352473   13.02889  52.6%     -   72s
H    0     0                       8.5896092   13.02889  51.7%     -   72s
H    0     0                       8.6487018   13.02889  50.6%     -   72s
     0     0   12.93282    0 1532    8.64870   12.93282  49.5%     -   77s
     0     0   12.93130    0 1543    8.64870   12.93130  49.5%     -   77s
     0     0   12.93128    0 1512    8.64870   12.93128  49.5%     -   77s
     0     0   12.90684    0 1661    8.64870   12.90684  49.2%     -   80s
     0     0   12.89754    0 1676    8.64870   12.89754  49.1%     -   82s
     0     0   12.89751    0 1669    8.64870   12.89751  49.1%     -   82s
     0     0   12.89751    0 1668    8.64870   12.89751  49.1%     -   82s
     0     0   12.89680    0 1567    8.64870   12.89680  49.1%     -   83s
     0     0   12.89676    0 1516    8.64870   12.89676  49.1%     -   83s
     0     0   12.54619    0 1517    8.64870   12.54619  45.1%     -   95s
     0     0   12.54481    0 1590    8.64870   12.54481  45.0%     -   96s
     0     0   12.54409    0 1581    8.64870   12.54409  45.0%     -   97s
     0     0   12.54409    0 1539    8.64870   12.54409  45.0%     -   97s
     0     0   12.51270    0 1579    8.64870   12.51270  44.7%     -   99s
     0     0   12.50759    0 1592    8.64870   12.50759  44.6%     -  101s
     0     0   12.50706    0 1581    8.64870   12.50706  44.6%     -  101s
     0     0   12.50660    0 1524    8.64870   12.50660  44.6%     -  101s
     0     0   12.21196    0 1766    8.64870   12.21196  41.2%     -  116s
     0     0   12.20630    0 1771    8.64870   12.20630  41.1%     -  119s
     0     0   12.20451    0 1796    8.64870   12.20451  41.1%     -  122s
     0     0   12.20435    0 1750    8.64870   12.20435  41.1%     -  122s
     0     0   12.20429    0 1774    8.64870   12.20429  41.1%     -  123s
     0     0   12.20429    0 1772    8.64870   12.20429  41.1%     -  123s
H    0     0                       8.6535051   12.20429  41.0%     -  123s
H    0     0                       8.6971506   12.20429  40.3%     -  124s
H    0     0                       8.7281957   12.20429  39.8%     -  124s
H    0     0                       8.7864473   12.20429  38.9%     -  124s
H    0     0                       8.8117969   12.20429  38.5%     -  124s
H    0     0                       8.8118685   12.20429  38.5%     -  124s
H    0     0                       8.8487545   12.20429  37.9%     -  124s
     0     0   12.17746    0 1889    8.84875   12.17746  37.6%     -  128s
     0     0   12.17699    0 1889    8.84875   12.17699  37.6%     -  129s
     0     0   12.17697    0 1901    8.84875   12.17697  37.6%     -  129s
     0     0   12.17105    0 1971    8.84875   12.17105  37.5%     -  130s
     0     0   12.16975    0 1972    8.84875   12.16975  37.5%     -  131s
     0     0   12.16975    0 1966    8.84875   12.16975  37.5%     -  131s
     0     0   11.99326    0 1586    8.84875   11.99326  35.5%     -  141s
     0     0   11.99174    0 1691    8.84875   11.99174  35.5%     -  145s
     0     0   11.99174    0 1694    8.84875   11.99174  35.5%     -  145s
     0     0   11.99174    0 1693    8.84875   11.99174  35.5%     -  145s
     0     0   11.96142    0 1681    8.84875   11.96142  35.2%     -  149s
     0     0   11.96132    0 1678    8.84875   11.96132  35.2%     -  149s
     0     0   11.96132    0 1720    8.84875   11.96132  35.2%     -  149s
     0     0   11.95717    0 1664    8.84875   11.95717  35.1%     -  151s
     0     0   11.95614    0 1594    8.84875   11.95614  35.1%     -  151s
     0     0   11.95614    0 1624    8.84875   11.95614  35.1%     -  152s
     0     0   11.95606    0 1568    8.84875   11.95606  35.1%     -  152s
     0     0   11.82921    0 1652    8.84875   11.82921  33.7%     -  161s
     0     0   11.82740    0 1734    8.84875   11.82740  33.7%     -  163s
     0     0   11.82740    0 1756    8.84875   11.82740  33.7%     -  163s
     0     0   11.82739    0 1758    8.84875   11.82739  33.7%     -  163s
     0     0   11.82739    0 1772    8.84875   11.82739  33.7%     -  164s
H    0     0                       8.8837819   11.82729  33.1%     -  165s
H    0     0                       8.8985677   11.82729  32.9%     -  166s
H    0     0                       8.9219310   11.82729  32.6%     -  166s
     0     0   11.81622    0 1762    8.92193   11.81622  32.4%     -  171s
     0     0   11.81615    0 1737    8.92193   11.81615  32.4%     -  171s
     0     0   11.81614    0 1729    8.92193   11.81614  32.4%     -  171s
     0     0   11.81480    0 1762    8.92193   11.81480  32.4%     -  172s
     0     0   11.81479    0 1757    8.92193   11.81479  32.4%     -  172s
     0     0   11.81478    0 1725    8.92193   11.81478  32.4%     -  172s
     0     0   11.67014    0 1548    8.92193   11.67014  30.8%     -  182s
     0     0   11.65929    0 1560    8.92193   11.65929  30.7%     -  195s
     0     0   11.65898    0 1578    8.92193   11.65898  30.7%     -  195s
     0     0   11.65898    0 1529    8.92193   11.65898  30.7%     -  195s
H    0     0                       8.9668980   11.65898  30.0%     -  195s
     0     0   11.64663    0 1617    8.96690   11.64663  29.9%     -  198s
     0     0   11.64612    0 1644    8.96690   11.64612  29.9%     -  198s
     0     0   11.64609    0 1615    8.96690   11.64609  29.9%     -  199s
     0     0   11.64325    0 1626    8.96690   11.64325  29.8%     -  200s
     0     0   11.64279    0 1605    8.96690   11.64279  29.8%     -  200s
     0     0   11.64249    0 1620    8.96690   11.64249  29.8%     -  200s
     0     0   11.64248    0 1623    8.96690   11.64248  29.8%     -  200s
     0     0   11.64181    0 1533    8.96690   11.64181  29.8%     -  201s
     0     0   11.64181    0 1532    8.96690   11.64181  29.8%     -  201s
     0     0   11.50295    0 1770    8.96690   11.50295  28.3%     -  214s
     0     0   11.50179    0 1707    8.96690   11.50179  28.3%     -  215s
     0     0   11.50162    0 1693    8.96690   11.50162  28.3%     -  216s
H    0     0                       9.0064245   11.50162  27.7%     -  217s
H    0     0                       9.0088128   11.50162  27.7%     -  219s
     0     0   11.48299    0 1604    9.00881   11.48299  27.5%     -  224s
     0     0   11.48290    0 1554    9.00881   11.48290  27.5%     -  224s
     0     0   11.48289    0 1542    9.00881   11.48289  27.5%     -  224s
     0     0   11.47903    0 1646    9.00881   11.47903  27.4%     -  228s
     0     0   11.47901    0 1611    9.00881   11.47901  27.4%     -  228s
     0     0   11.47858    0 1659    9.00881   11.47858  27.4%     -  229s
     0     0   11.47858    0 1642    9.00881   11.47858  27.4%     -  229s
     0     0   11.36908    0 1679    9.00881   11.36908  26.2%     -  242s
     0     0   11.36758    0 1663    9.00881   11.36758  26.2%     -  243s
     0     0   11.36756    0 1614    9.00881   11.36756  26.2%     -  243s
     0     0   11.35370    0 1807    9.00881   11.35370  26.0%     -  247s
     0     0   11.35351    0 1790    9.00881   11.35351  26.0%     -  248s
     0     0   11.35137    0 1757    9.00881   11.35137  26.0%     -  248s
     0     0   11.35137    0 1755    9.00881   11.35137  26.0%     -  248s
     0     0   11.35137    0 1757    9.00881   11.35137  26.0%     -  248s
     0     0   11.35137    0 1755    9.00881   11.35137  26.0%     -  248s
     0     0   11.35137    0 1754    9.00881   11.35137  26.0%     -  249s
     0     0   11.35100    0 1784    9.00881   11.35100  26.0%     -  249s
     0     0   11.35098    0 1737    9.00881   11.35098  26.0%     -  249s
     0     0   11.23846    0 1824    9.00881   11.23846  24.7%     -  263s
     0     0   11.23526    0 1802    9.00881   11.23526  24.7%     -  268s
     0     0   11.23519    0 1797    9.00881   11.23519  24.7%     -  268s
H    0     0                       9.0300020   11.23519  24.4%     -  270s
     0     0   11.21710    0 1651    9.03000   11.21710  24.2%     -  278s
     0     0   11.21707    0 1677    9.03000   11.21707  24.2%     -  279s
     0     0   11.21435    0 1855    9.03000   11.21435  24.2%     -  281s
     0     0   11.21423    0 1922    9.03000   11.21423  24.2%     -  282s
     0     0   11.21423    0 1922    9.03000   11.21423  24.2%     -  282s
     0     0   11.10611    0 1975    9.03000   11.10611  23.0%     -  297s
     0     0   11.10528    0 2055    9.03000   11.10528  23.0%     -  298s
     0     0   11.10527    0 2015    9.03000   11.10527  23.0%     -  298s
     0     0   11.07643    0 2176    9.03000   11.07643  22.7%     -  306s
     0     0   11.07616    0 2095    9.03000   11.07616  22.7%     -  307s
     0     0   11.07616    0 2093    9.03000   11.07616  22.7%     -  307s
     0     0   11.07096    0 2048    9.03000   11.07096  22.6%     -  311s
     0     0   11.07084    0 2012    9.03000   11.07084  22.6%     -  312s
     0     0   11.07083    0 2018    9.03000   11.07083  22.6%     -  312s
     0     0   11.07080    0 2025    9.03000   11.07080  22.6%     -  312s
     0     0   11.07035    0 2003    9.03000   11.07035  22.6%     -  312s
     0     0   10.98638    0 1911    9.03000   10.98638  21.7%     -  326s
     0     0   10.98611    0 1912    9.03000   10.98611  21.7%     -  327s
     0     0   10.98591    0 1800    9.03000   10.98591  21.7%     -  328s
     0     0   10.98590    0 1804    9.03000   10.98590  21.7%     -  328s
H    0     0                       9.0354819   10.98590  21.6%     -  330s
H    0     0                       9.0982930   10.98590  20.7%     -  330s
H    0     0                       9.1380193   10.98590  20.2%     -  333s
     0     0   10.96394    0 2133    9.13802   10.96394  20.0%     -  339s
     0     0   10.96392    0 2148    9.13802   10.96392  20.0%     -  339s
     0     0   10.96391    0 2147    9.13802   10.96391  20.0%     -  339s
     0     0   10.96189    0 1971    9.13802   10.96189  20.0%     -  341s
     0     0   10.96188    0 1971    9.13802   10.96188  20.0%     -  341s
     0     0   10.83765    0 1797    9.13802   10.83765  18.6%     -  355s
     0     0   10.83407    0 1887    9.13802   10.83407  18.6%     -  357s
     0     0   10.83400    0 1856    9.13802   10.83400  18.6%     -  358s
     0     0   10.83400    0 1816    9.13802   10.83400  18.6%     -  358s
     0     0   10.83400    0 1732    9.13802   10.83400  18.6%     -  358s
     0     0   10.81579    0 2007    9.13802   10.81579  18.4%     -  364s
     0     0   10.81549    0 1978    9.13802   10.81549  18.4%     -  365s
     0     0   10.81548    0 1977    9.13802   10.81548  18.4%     -  365s
     0     0   10.81545    0 1962    9.13802   10.81545  18.4%     -  365s
     0     0   10.80982    0 1888    9.13802   10.80982  18.3%     -  367s
     0     0   10.80797    0 1999    9.13802   10.80797  18.3%     -  369s
     0     0   10.80790    0 2043    9.13802   10.80790  18.3%     -  369s
     0     0   10.67314    0 2044    9.13802   10.67314  16.8%     -  382s
     0     0   10.67252    0 1891    9.13802   10.67252  16.8%     -  383s
H    0     0                       9.1532253   10.67252  16.6%     -  387s
H    0     0                       9.2207697   10.67252  15.7%     -  388s
     0     0   10.63969    0 2112    9.22077   10.63969  15.4%     -  397s
     0     0   10.63794    0 2067    9.22077   10.63794  15.4%     -  398s
     0     0   10.62753    0 2098    9.22077   10.62753  15.3%     -  402s
     0     0   10.62748    0 2096    9.22077   10.62748  15.3%     -  402s
     0     0   10.62745    0 2103    9.22077   10.62745  15.3%     -  402s
     0     0   10.62745    0 2134    9.22077   10.62745  15.3%     -  402s
     0     0   10.62414    0 2084    9.22077   10.62414  15.2%     -  404s
     0     0   10.62385    0 2131    9.22077   10.62385  15.2%     -  405s
     0     0   10.62284    0 1919    9.22077   10.62284  15.2%     -  406s
     0     0   10.62282    0 1900    9.22077   10.62282  15.2%     -  407s
     0     0   10.52209    0 1749    9.22077   10.52209  14.1%     -  417s
     0     0   10.52177    0 1917    9.22077   10.52177  14.1%     -  418s
     0     0   10.49509    0 2045    9.22077   10.49509  13.8%     -  424s
     0     0   10.49484    0 1955    9.22077   10.49484  13.8%     -  428s
     0     0   10.49227    0 1993    9.22077   10.49227  13.8%     -  430s
     0     0   10.49227    0 1991    9.22077   10.49227  13.8%     -  430s
     0     0   10.39027    0 2174    9.22077   10.39027  12.7%     -  439s
     0     0   10.38845    0 2058    9.22077   10.38845  12.7%     -  441s
     0     0   10.38797    0 2073    9.22077   10.38797  12.7%     -  441s
H    0     0                       9.2224651   10.38797  12.6%     -  443s
H    0     0                       9.2260842   10.38797  12.6%     -  443s
H    0     0                       9.2572715   10.38797  12.2%     -  447s
     0     0   10.36634    0 2011    9.25727   10.36634  12.0%     -  455s
     0     0   10.36619    0 2036    9.25727   10.36619  12.0%     -  457s
     0     0   10.36453    0 2098    9.25727   10.36453  12.0%     -  458s
     0     0   10.36445    0 2173    9.25727   10.36445  12.0%     -  459s
     0     0   10.28324    0 1780    9.25727   10.28324  11.1%     -  469s
     0     0   10.28194    0 1649    9.25727   10.28194  11.1%     -  471s
     0     0   10.28184    0 1745    9.25727   10.28184  11.1%     -  472s
     0     0   10.28183    0 1706    9.25727   10.28183  11.1%     -  472s
     0     0   10.26876    0 1633    9.25727   10.26876  10.9%     -  477s
     0     0   10.26853    0 1709    9.25727   10.26853  10.9%     -  478s
     0     0   10.26853    0 1753    9.25727   10.26853  10.9%     -  478s
     0     0   10.26668    0 1653    9.25727   10.26668  10.9%     -  480s
     0     0   10.21472    0 1940    9.25727   10.21472  10.3%     -  489s
     0     0   10.21367    0 1887    9.25727   10.21367  10.3%     -  491s
     0     0   10.21367    0 1911    9.25727   10.21367  10.3%     -  491s
     0     0   10.19718    0 1713    9.25727   10.19718  10.2%     -  495s
     0     0   10.19696    0 1600    9.25727   10.19696  10.2%     -  496s
     0     0   10.19696    0 1599    9.25727   10.19696  10.2%     -  496s
     0     0   10.19450    0 1651    9.25727   10.19450  10.1%     -  497s
     0     0   10.19440    0 1618    9.25727   10.19440  10.1%     -  498s
     0     0   10.15074    0 1350    9.25727   10.15074  9.65%     -  506s
     0     0   10.15050    0 1364    9.25727   10.15050  9.65%     -  506s
     0     0   10.13909    0 1476    9.25727   10.13909  9.53%     -  510s
     0     0   10.13909    0 1492    9.25727   10.13909  9.53%     -  510s
     0     0   10.13907    0 1489    9.25727   10.13907  9.53%     -  510s
     0     0   10.13563    0 1534    9.25727   10.13563  9.49%     -  512s
     0     0   10.13545    0 1564    9.25727   10.13545  9.49%     -  513s
     0     0   10.13545    0 1557    9.25727   10.13545  9.49%     -  513s
     0     0   10.13468    0 1582    9.25727   10.13468  9.48%     -  513s
     0     0   10.13467    0 1585    9.25727   10.13467  9.48%     -  513s
     0     0   10.09704    0 1470    9.25727   10.09704  9.07%     -  521s
     0     0   10.09666    0 1545    9.25727   10.09666  9.07%     -  522s
     0     0   10.08524    0 1526    9.25727   10.08524  8.94%     -  536s
     0     0   10.08524    0 1521    9.25727   10.08524  8.94%     -  537s
     0     0   10.08524    0 1484    9.25727   10.08524  8.94%     -  537s
     0     0   10.08281    0 1669    9.25727   10.08281  8.92%     -  539s
     0     0   10.08269    0 1713    9.25727   10.08269  8.92%     -  539s
     0     0   10.08269    0 1605    9.25727   10.08269  8.92%     -  539s
     0     0   10.08269    0 1638    9.25727   10.08269  8.92%     -  539s
     0     0   10.08269    0 1642    9.25727   10.08269  8.92%     -  539s
     0     0   10.08268    0 1645    9.25727   10.08268  8.92%     -  539s
     0     0   10.05265    0 1674    9.25727   10.05265  8.59%     -  546s
     0     0   10.05232    0 1648    9.25727   10.05232  8.59%     -  550s
     0     0   10.05231    0 1724    9.25727   10.05231  8.59%     -  550s
     0     0   10.04340    0 1576    9.25727   10.04340  8.49%     -  554s
     0     0   10.04339    0 1537    9.25727   10.04339  8.49%     -  554s
     0     0   10.04247    0 1509    9.25727   10.04247  8.48%     -  555s
     0     0   10.01003    0 1532    9.25727   10.01003  8.13%     -  563s
     0     0   10.00968    0 1576    9.25727   10.00968  8.13%     -  563s
     0     0   10.00964    0 1605    9.25727   10.00964  8.13%     -  563s
     0     0   10.00961    0 1599    9.25727   10.00961  8.13%     -  563s
     0     0   10.00960    0 1593    9.25727   10.00960  8.13%     -  563s
     0     0   10.00495    0 1535    9.25727   10.00495  8.08%     -  566s
     0     0   10.00492    0 1519    9.25727   10.00492  8.08%     -  566s
     0     0   10.00409    0 1435    9.25727   10.00409  8.07%     -  567s
     0     0    9.97271    0 1653    9.25727    9.97271  7.73%     -  574s
     0     0    9.96921    0 1686    9.25727    9.96921  7.69%     -  577s
     0     0    9.96801    0 1773    9.25727    9.96801  7.68%     -  578s
     0     0    9.96801    0 1752    9.25727    9.96801  7.68%     -  578s
     0     0    9.96797    0 1747    9.25727    9.96797  7.68%     -  578s
     0     0    9.96343    0 1778    9.25727    9.96343  7.63%     -  581s
     0     0    9.96303    0 1607    9.25727    9.96303  7.62%     -  582s
     0     0    9.96108    0 1662    9.25727    9.96108  7.60%     -  583s
     0     0    9.93257    0 1513    9.25727    9.93257  7.29%     -  589s
     0     0    9.93128    0 1430    9.25727    9.93128  7.28%     -  590s
     0     0    9.93124    0 1455    9.25727    9.93124  7.28%     -  591s
     0     0    9.92121    0 1600    9.25727    9.92121  7.17%     -  594s
     0     0    9.92116    0 1582    9.25727    9.92116  7.17%     -  594s
     0     0    9.92115    0 1571    9.25727    9.92115  7.17%     -  594s
     0     0    9.91920    0 1598    9.25727    9.91920  7.15%     -  596s
     0     0    9.89650    0 1598    9.25727    9.89650  6.91%     -  601s
     0     0    9.89619    0 1642    9.25727    9.89619  6.90%     -  602s
     0     0    9.89619    0 1637    9.25727    9.89619  6.90%     -  602s
     0     0    9.89619    0 1637    9.25727    9.89619  6.90%     -  602s
     0     0    9.89619    0 1636    9.25727    9.89619  6.90%     -  603s
     0     2    9.89619    0 1636    9.25727    9.89619  6.90%     -  621s
     1     3    9.89540    1 1636    9.25727    9.89619  6.90% 15559  626s
     3     5    9.89510    3 1566    9.25727    9.89619  6.90%  6603  631s
     6     8    9.89366    6 1587    9.25727    9.89619  6.90%  3762  635s
     8    10    9.89244    8 1591    9.25727    9.89619  6.90%  3466  646s
    12    14    9.89000   12 1524    9.25727    9.89619  6.90%  3188  650s
    16    18    9.88780   16 1669    9.25727    9.89619  6.90%  3082  655s
    24    26    9.87660   22 1508    9.25727    9.89619  6.90%  2644  661s
H   26    26                       9.2615132    9.89619  6.85%  2449  670s
    29    31    9.88596   26 1634    9.26151    9.89619  6.85%  2424  675s
    39    41    9.88355   35 1465    9.26151    9.89619  6.85%  2092  680s
    52    54    9.88051   48 1472    9.26151    9.89619  6.85%  1724  694s
    53    55    9.88051   49 1511    9.26151    9.89619  6.85%  1693  695s
    67    69    9.87954   62 1376    9.26151    9.89619  6.85%  1505  700s
    81    83    9.87676   75 1436    9.26151    9.89619  6.85%  1388  705s
    87    89    9.87619   80 1441    9.26151    9.89619  6.85%  1423  710s
   104   106    9.87396   97 1382    9.26151    9.89619  6.85%  1292  715s
   119   121    9.87286  111 1456    9.26151    9.89619  6.85%  1209  720s
   130   132    9.73695  119 1448    9.26151    9.89619  6.85%  1240  726s
   140   142    9.86898  129 1357    9.26151    9.89619  6.85%  1200  730s
   157   159    9.86551  146 1486    9.26151    9.89619  6.85%  1170  737s
   160   162    9.86291  149 1376    9.26151    9.89619  6.85%  1202  740s
   161   163    9.54962  149 1380    9.26151    9.89619  6.85%  1287  746s
   172   174    9.86168  160 1424    9.26151    9.89619  6.85%  1250  750s
   188   190    9.85870  176 1512    9.26151    9.89619  6.85%  1203  760s
H  189   189                       9.3047379    9.89619  6.36%  1197  767s
H  189   189                       9.3100528    9.89619  6.30%  1197  769s
H  189   189                       9.3168126    9.89619  6.22%  1197  769s
   190   192    9.85868  178 1431    9.31681    9.89619  6.22%  1195  770s
   206   208    9.85386  194 1445    9.31681    9.89619  6.22%  1158  775s
H  216   216                       9.3377005    9.89619  5.98%  1132  778s
   226   228    9.85300  214 1381    9.33770    9.89619  5.98%  1096  780s
   241   243    9.61313  228 1429    9.33770    9.89619  5.98%  1076  785s
   254   256    9.77583  240 1269    9.33770    9.89619  5.98%  1059  790s
   264   266    9.84588  249 1394    9.33770    9.89619  5.98%  1063  795s
   279   281    9.84343  264 1374    9.33770    9.89619  5.98%  1049  800s
   290   292    9.84107  275 1475    9.33770    9.89619  5.98%  1047  805s
   314   316    9.83798  299 1303    9.33770    9.89619  5.98%   999  810s
   319   321    9.82830  303 1386    9.33770    9.89619  5.98%  1026  815s
   344   346    9.83266  328 1347    9.33770    9.89619  5.98%   976  820s
   364   366    9.81321  347 1252    9.33770    9.89619  5.98%   951  825s
   368   370    9.82114  351 1105    9.33770    9.89619  5.98%   982  831s
   383   385    9.81710  366 1311    9.33770    9.89619  5.98%   969  835s
   399   401    9.81489  382 1280    9.33770    9.89619  5.98%   957  840s
   424   426    9.81050  407 1330    9.33770    9.89619  5.98%   921  845s
   441   443    9.80924  424 1226    9.33770    9.89619  5.98%   914  850s
   468   470    9.80612  451 1371    9.33770    9.89619  5.98%   878  855s
   477   479    9.80439  460 1313    9.33770    9.89619  5.98%   868  860s
   503   505    9.80179  486 1357    9.33770    9.89619  5.98%   842  865s
H  511   511                       9.3470759    9.89619  5.87%   831  878s
H  511   511                       9.3534842    9.89619  5.80%   831  878s
   511   513    9.80172  494 1377    9.35348    9.89619  5.80%   831  880s
H  540   540                       9.3539322    9.89619  5.80%   796  884s
   544   546    9.79725  526 1149    9.35393    9.89619  5.80%   796  885s
   558   560    9.79388  540 1141    9.35393    9.89619  5.80%   795  890s
   573   575    9.78977  555 1175    9.35393    9.89619  5.80%   794  895s
   585   587    9.78733  566 1333    9.35393    9.89619  5.80%   798  900s
   604   606    9.78206  584 1331    9.35393    9.89619  5.80%   792  905s
   629   631    9.78002  609 1356    9.35393    9.89619  5.80%   776  910s
   644   646    9.77542  623 1284    9.35393    9.89619  5.80%   777  915s
   651   653    9.76696  629 1349    9.35393    9.89619  5.80%   785  920s
   659   661    9.76825  637 1353    9.35393    9.89619  5.80%   790  925s
   680   682    9.76355  657 1162    9.35393    9.89619  5.80%   779  930s
   699   701    9.76075  676 1176    9.35393    9.89619  5.80%   772  935s
   710   712    9.74017  686 1063    9.35393    9.89619  5.80%   776  941s
   736   738    9.73598  712 1088    9.35393    9.89619  5.80%   755  945s
   774   776    9.73414  750 1085    9.35393    9.89619  5.80%   727  950s
H  785   785                       9.3539323    9.89619  5.80%   722  953s
   788   790    9.72786  763 1134    9.35393    9.89619  5.80%   723  955s
   807   809    9.72332  782 1072    9.35393    9.89619  5.80%   718  960s
   836   838    9.71909  811 1150    9.35393    9.89619  5.80%   701  965s
   853   855    9.71002  828 1043    9.35393    9.89619  5.80%   695  970s
   878   880    9.70404  852 1098    9.35393    9.89619  5.80%   686  975s
   909   911    9.69792  883 1019    9.35393    9.89619  5.80%   671  980s
   960   962    9.69191  933 1060    9.35393    9.89619  5.80%   642  985s
H  979   977                       9.3738104    9.89619  5.57%   633  988s
   994   994    9.68864  967 1004    9.37381    9.89619  5.57%   627  990s
  1019  1019    9.68166  992 1136    9.37381    9.89619  5.57%   617  995s
  1062  1062    9.67867 1035 1086    9.37381    9.89619  5.57%   599 1000s
  1113  1113    9.67036 1086  994    9.37381    9.89619  5.57%   578 1005s
  1124  1124    9.66983 1097 1150    9.37381    9.89619  5.57%   573 1014s
  1134  1134    9.66852 1107 1148    9.37381    9.89619  5.57%   569 1015s
  1185  1185    9.64803 1157  985    9.37381    9.89619  5.57%   551 1020s
  1212  1212    9.50257 1184 1102    9.37381    9.89619  5.57%   546 1025s
  1244  1244    9.48700 1216 1179    9.37381    9.89619  5.57%   540 1030s
  1277  1277    9.45580 1249 1066    9.37381    9.89619  5.57%   532 1035s
  1322  1317    9.43293 1294  914    9.37381    9.89619  5.57%   520 1040s
  1371  1361     cutoff 1341         9.37381    9.89619  5.57%   509 1045s
  1431  1416    9.39620 1399 1083    9.37381    9.89619  5.57%   495 1050s
  1479  1447    9.64660    1 1633    9.37381    9.89524  5.56%   499 1062s
  1481  1448    9.80159  504 1508    9.37381    9.89524  5.56%   498 1105s
  1483  1449    9.37850 1369  965    9.37381    9.89524  5.56%   497 1111s
  1485  1451    9.39619 1402 1317    9.37381    9.89524  5.56%   497 1120s
  1486  1451    9.39643 1394 1515    9.37381    9.89524  5.56%   496 1127s
  1487  1452    9.60083  500 1726    9.37381    9.89524  5.56%   496 1141s
  1488  1453    9.45330 1263 1610    9.37381    9.89524  5.56%   496 1154s
  1489  1453    9.72141  787 1873    9.37381    9.89524  5.56%   495 1167s
  1490  1454    9.70096  868 1717    9.37381    9.89524  5.56%   495 1181s
  1491  1455    9.42157 1324 1661    9.37381    9.89524  5.56%   495 1197s
  1492  1455    9.80079  191 1816    9.37381    9.89524  5.56%   494 1210s
  1493  1456    9.87660   23 1797    9.37381    9.89524  5.56%   494 1226s
  1494  1457    9.70877  841 1792    9.37381    9.89524  5.56%   494 1246s
  1495  1457    9.72116  792 1607    9.37381    9.89524  5.56%   493 1261s
  1496  1458    9.89000   13 1563    9.37381    9.89524  5.56%   493 1272s
  1497  1459    9.80610  454 1446    9.37381    9.88240  5.43%   493 1283s
  1498  1459    9.70044  872 1220    9.37381    9.81901  4.75%   492 1294s
  1499  1460    9.72367  780 1447    9.37381    9.77974  4.33%   492 1301s
  1500  1461    9.50257 1185 1254    9.37381    9.72694  3.77%   492 1306s
  1501  1461    9.69718   87  988    9.37381    9.69718  3.45%   491 1312s
  1502  1462    9.65966  775 1132    9.37381    9.65966  3.05%   491 1317s
  1503  1463    9.64081  165 1132    9.37381    9.64081  2.85%   491 1323s
  1504  1463    9.61776  449 1189    9.37381    9.61776  2.60%   490 1328s
  1505  1464    9.60133   78 1111    9.37381    9.60133  2.43%   490 1331s
H 1505  1390                       9.3965501    9.57605  1.91%   490 1340s
H 1505  1320                       9.4083043    9.57605  1.78%   490 1340s
  1508  1322    9.54126  226 1002    9.40830    9.54126  1.41%   489 1347s
  1511  1325    9.53424  405 1508    9.40830    9.53424  1.34%   854 1353s
  1513  1326    9.53424  239  886    9.40830    9.53424  1.34%   853 1358s
  1514  1327    9.53424  927 1164    9.40830    9.53424  1.34%   852 1361s
  1515  1328    9.53424 1122 1365    9.40830    9.53424  1.34%   852 1366s
  1516  1328    9.53424  635 1393    9.40830    9.53424  1.34%   851 1371s
  1517  1329    9.53424  322 1446    9.40830    9.53424  1.34%   851 1377s
  1518  1330    9.41574 1345 1598    9.40830    9.53424  1.34%   850 1384s
  1519  1330    9.40830  695 1700    9.40830    9.53424  1.34%   850 1394s
  1520  1331    9.53424  617 1520    9.40830    9.53424  1.34%   849 1402s
  1521  1332    9.53424   66 1542    9.40830    9.53424  1.34%   849 1411s
  1522  1332    9.53424  295 1638    9.40830    9.53424  1.34%   848 1419s
  1523  1333    9.53424  923 1444    9.40830    9.53424  1.34%   847 1426s
  1524  1334    9.53424  324 1213    9.40830    9.53424  1.34%   847 1435s
  1525  1334    9.40830  610 1172    9.40830    9.53424  1.34%   846 1441s
  1526  1335    9.53424  185 1340    9.40830    9.53424  1.34%   846 1446s
  1527  1336    9.53424  258 1041    9.40830    9.53424  1.34%   845 1450s
  1529  1337    9.53424 1105  993    9.40830    9.53424  1.34%   844 1458s
  1530  1338    9.40830 1411  971    9.40830    9.51705  1.16%   844 1461s
  1532  1339    9.49455  607  929    9.40830    9.49455  0.92%   842 1467s
  1533  1340    9.48144  521  919    9.40830    9.48144  0.78%   842 1470s
  1537  1344    9.43163  423 1508    9.40830    9.43163  0.25%  1069 1476s
  1546  1350    9.43163  785  545    9.40830    9.43163  0.25%  1063 1480s
H 1558  1290                       9.4095044    9.40950  0.00%  1076 1481s

Cutting planes:
  Gomory: 13
  Implied bound: 67
  MIR: 8
  Mixing: 1
  Flow cover: 25
  RLT: 30
  Relax-and-lift: 42

Explored 1558 nodes (3085664 simplex iterations) in 1481.39 seconds (3633.63 work units)
Thread count was 1 (of 11 available processors)

Solution count 10: 9.4095 9.4083 9.40461 ... 9.3377

Optimal solution found (tolerance 1.00e-04)
Best objective 9.409504352610e+00, best bound 9.409504352610e+00, gap 0.0000%
